data;

param n:=28;
param p:=3;
param r:=[1] 0 [2] 3 [3] 3 [4] 5 [5] 10 [6] 10 [7] 0 [8] 16 [9] 22 [10] 3 [11] 24 [12] 4 [13] 3 [14] 36 [15] 31 [16] 25 [17] 35 [18] 1 [19] 23 [20] 21 [21] 21 [22] 62 [23] 37 [24] 39 [25] 15 [26] 51 [27] 60 [28] 47 ;
param w:=[1] 9 [2] 37 [3] 62 [4] 50 [5] 88 [6] 53 [7] 43 [8] 24 [9] 91 [10] 42 [11] 33 [12] 25 [13] 7 [14] 76 [15] 5 [16] 19 [17] 92 [18] 85 [19] 100 [20] 5 [21] 8 [22] 72 [23] 21 [24] 70 [25] 68 [26] 30 [27] 59 [28] 71 ;

end;
